154
0 120 84 20 3 114 22 29 146 68 
60 50 64 71 105 104 66 143 77 46 
47 139 25 57 137 6 98 43 135 121 
78 116 145 26 148 56 112 96 37 31 
81 8 28 49 100 14 152 58 12 87 
91 82 136 113 19 11 144 119 13 128 
74 150 62 15 86 23 127 38 44 93 
76 53 73 131 115 33 63 138 34 48 
40 132 27 69 108 92 99 41 149 51 
18 118 39 111 126 89 153 67 30 21 
130 88 5 36 117 147 75 133 134 9 
79 140 55 90 106 124 129 65 107 142 
54 141 85 52 1 7 17 97 24 2 
35 72 125 83 151 59 61 32 70 94 
101 123 42 110 122 4 109 10 95 103 
16 102 45 80 
